c This is a random SAT instance with 10 variables and 20 clauses
p cnf 10 20
1 8 -8 -4 9 0
7 -8 1 10 -4 -1 -9 5 0
-3 -9 0
-8 -6 -4 1 6 -3 0
5 -1 3 -6 4 10 0
-4 -3 -8 9 2 5 -6 0
-10 -3 6 -5 4 0
9 -10 -6 3 6 4 0
7 3 -7 0
7 9 0
-3 4 0
-4 0
-3 8 -7 0
-8 -4 4 6 -7 0
-9 10 -7 6 0
-9 5 10 4 3 -3 1 -4 -1 0
7 -7 9 0
-9 7 0
6 9 -2 -8 0
-5 7 0